
<<< setup

Tried aggregator 1 time.
LP Presolve eliminated 100 rows and 77 columns.
Reduced LP has 1 rows, 8 columns, and 8 nonzeros.
Presolve time = 0.00 sec. (0.04 ticks)

Iteration log . . .
Iteration:     1   Dual objective     =          1288.198993
main returns 0

<<< main


<<< done

